
(set-logic HORN)
(declare-fun zero_131 () Int)
(declare-fun succ_128 (Int) Int)
(declare-datatypes ((Bool_290 0)) (((false_290) (true_290))))
(declare-fun diseqBool_137 (Bool_290 Bool_290) Bool)
(declare-fun isfalse_137 (Bool_290) Bool)
(declare-fun istrue_137 (Bool_290) Bool)
(assert (isfalse_137 false_290))
(assert (istrue_137 true_290))
(assert (diseqBool_137 false_290 true_290))
(assert (diseqBool_137 true_290 false_290))
(declare-fun and_290 (Bool_290 Bool_290 Bool_290) Bool)
(declare-fun or_296 (Bool_290 Bool_290 Bool_290) Bool)
(declare-fun hence_290 (Bool_290 Bool_290 Bool_290) Bool)
(declare-fun not_294 (Bool_290 Bool_290) Bool)
(assert (and_290 false_290 false_290 false_290))
(assert (and_290 false_290 true_290 false_290))
(assert (and_290 false_290 false_290 true_290))
(assert (and_290 true_290 true_290 true_290))
(assert (or_296 false_290 false_290 false_290))
(assert (or_296 true_290 true_290 false_290))
(assert (or_296 true_290 false_290 true_290))
(assert (or_296 true_290 true_290 true_290))
(assert (hence_290 true_290 false_290 false_290))
(assert (hence_290 false_290 true_290 false_290))
(assert (hence_290 true_290 false_290 true_290))
(assert (hence_290 true_290 true_290 true_290))
(assert (not_294 true_290 false_290))
(assert (not_294 false_290 true_290))
(declare-fun diseqInt (Int Int) Bool)
(declare-fun p_360 (Int Int) Bool)
(declare-fun iszero_128 (Int) Bool)
(declare-fun issucc_128 (Int) Bool)
(assert (forall ((x_52109 Int))
	(p_360 x_52109 (succ_128 x_52109))))
(assert (iszero_128 zero_131))
(assert (forall ((x_52111 Int))
	(issucc_128 (succ_128 x_52111))))
(assert (forall ((x_52112 Int))
	(diseqInt zero_131 (succ_128 x_52112))))
(assert (forall ((x_52113 Int))
	(diseqInt (succ_128 x_52113) zero_131)))
(assert (forall ((x_52114 Int) (x_52115 Int))
	(=> (diseqInt x_52114 x_52115) (diseqInt (succ_128 x_52114) (succ_128 x_52115)))))
(declare-datatypes ((list_206 0)) (((nil_234) (cons_206 (head_412 Int) (tail_412 list_206)))))
(declare-fun diseqlist_206 (list_206 list_206) Bool)
(declare-fun head_413 (Int list_206) Bool)
(declare-fun tail_413 (list_206 list_206) Bool)
(declare-fun isnil_234 (list_206) Bool)
(declare-fun iscons_206 (list_206) Bool)
(assert (forall ((x_52117 Int) (x_52118 list_206))
	(head_413 x_52117 (cons_206 x_52117 x_52118))))
(assert (forall ((x_52117 Int) (x_52118 list_206))
	(tail_413 x_52118 (cons_206 x_52117 x_52118))))
(assert (isnil_234 nil_234))
(assert (forall ((x_52120 Int) (x_52121 list_206))
	(iscons_206 (cons_206 x_52120 x_52121))))
(assert (forall ((x_52122 Int) (x_52123 list_206))
	(diseqlist_206 nil_234 (cons_206 x_52122 x_52123))))
(assert (forall ((x_52124 Int) (x_52125 list_206))
	(diseqlist_206 (cons_206 x_52124 x_52125) nil_234)))
(assert (forall ((x_52126 Int) (x_52127 list_206) (x_52128 Int) (x_52129 list_206))
	(=> (diseqInt x_52126 x_52128) (diseqlist_206 (cons_206 x_52126 x_52127) (cons_206 x_52128 x_52129)))))
(assert (forall ((x_52126 Int) (x_52127 list_206) (x_52128 Int) (x_52129 list_206))
	(=> (diseqlist_206 x_52127 x_52129) (diseqlist_206 (cons_206 x_52126 x_52127) (cons_206 x_52128 x_52129)))))
(declare-datatypes ((pair_88 0)) (((pair_89 (projpair_176 Bool_290) (projpair_177 list_206)))))
(declare-fun diseqpair_44 (pair_88 pair_88) Bool)
(declare-fun projpair_178 (Bool_290 pair_88) Bool)
(declare-fun projpair_179 (list_206 pair_88) Bool)
(declare-fun ispair_44 (pair_88) Bool)
(assert (forall ((x_52130 Bool_290) (x_52131 list_206))
	(projpair_178 x_52130 (pair_89 x_52130 x_52131))))
(assert (forall ((x_52130 Bool_290) (x_52131 list_206))
	(projpair_179 x_52131 (pair_89 x_52130 x_52131))))
(assert (forall ((x_52133 Bool_290) (x_52134 list_206))
	(ispair_44 (pair_89 x_52133 x_52134))))
(assert (forall ((x_52135 Bool_290) (x_52136 list_206) (x_52137 Bool_290) (x_52138 list_206))
	(=> (diseqBool_137 x_52135 x_52137) (diseqpair_44 (pair_89 x_52135 x_52136) (pair_89 x_52137 x_52138)))))
(assert (forall ((x_52135 Bool_290) (x_52136 list_206) (x_52137 Bool_290) (x_52138 list_206))
	(=> (diseqlist_206 x_52136 x_52138) (diseqpair_44 (pair_89 x_52135 x_52136) (pair_89 x_52137 x_52138)))))
(declare-fun plus_125 (Int Int Int) Bool)
(assert (forall ((x_52069 Int) (z_1761 Int) (y_1980 Int))
	(=> (plus_125 x_52069 z_1761 y_1980) (plus_125 (succ_128 x_52069) (succ_128 z_1761) y_1980))))
(assert (forall ((x_52070 Int))
	(plus_125 x_52070 zero_131 x_52070)))
(declare-fun leq_49 (Bool_290 Int Int) Bool)
(assert (forall ((x_52071 Bool_290) (x_52059 Int) (z_1762 Int))
	(=> (leq_49 x_52071 z_1762 x_52059) (leq_49 x_52071 (succ_128 z_1762) (succ_128 x_52059)))))
(assert (forall ((z_1762 Int))
	(leq_49 false_290 (succ_128 z_1762) zero_131)))
(assert (forall ((y_1981 Int))
	(leq_49 true_290 zero_131 y_1981)))
(declare-fun count_32 (Int Int list_206) Bool)
(assert (forall ((x_52075 Int) (x_52076 Int) (ys_183 list_206) (x_52060 Int))
	(=> (and (count_32 x_52076 x_52060 ys_183) (plus_125 x_52075 (succ_128 zero_131) x_52076)) (count_32 x_52075 x_52060 (cons_206 x_52060 ys_183)))))
(assert (forall ((x_52078 Int) (z_1763 Int) (ys_183 list_206) (x_52060 Int))
	(=> (and (diseqInt x_52060 z_1763) (count_32 x_52078 x_52060 ys_183)) (count_32 x_52078 x_52060 (cons_206 z_1763 ys_183)))))
(assert (forall ((x_52060 Int))
	(count_32 zero_131 x_52060 nil_234)))
(declare-fun bubble_5 (pair_88 list_206) Bool)
(assert (forall ((b_31 Bool_290) (ys_184 list_206) (y_1984 Int) (xs_565 list_206) (y_1983 Int))
	(=> (and (bubble_5 (pair_89 b_31 ys_184) (cons_206 y_1984 xs_565)) (leq_49 true_290 y_1983 y_1984)) (bubble_5 (pair_89 b_31 (cons_206 y_1983 ys_184)) (cons_206 y_1983 (cons_206 y_1984 xs_565))))))
(assert (forall ((b_32 Bool_290) (ys_185 list_206) (y_1984 Int) (xs_565 list_206) (y_1983 Int))
	(=> (and (bubble_5 (pair_89 b_32 ys_185) (cons_206 y_1983 xs_565)) (leq_49 false_290 y_1983 y_1984)) (bubble_5 (pair_89 true_290 (cons_206 y_1984 ys_185)) (cons_206 y_1983 (cons_206 y_1984 xs_565))))))
(assert (forall ((y_1983 Int))
	(bubble_5 (pair_89 false_290 (cons_206 y_1983 nil_234)) (cons_206 y_1983 nil_234))))
(assert (bubble_5 (pair_89 false_290 nil_234) nil_234))
(declare-fun bubsort_5 (list_206 list_206) Bool)
(assert (forall ((x_52090 list_206) (ys_186 list_206) (x_52062 list_206))
	(=> (and (bubsort_5 x_52090 ys_186) (bubble_5 (pair_89 true_290 ys_186) x_52062)) (bubsort_5 x_52090 x_52062))))
(assert (forall ((ys_186 list_206) (x_52062 list_206))
	(=> (bubble_5 (pair_89 false_290 ys_186) x_52062) (bubsort_5 x_52062 x_52062))))
(assert (forall ((x_52094 Int) (x_52095 Int) (x_52096 Int) (x_52097 Int) (x_52063 Int) (y_1985 Int) (z_1765 Int))
	(=> (and true (diseqInt x_52095 x_52097) (plus_125 x_52094 y_1985 z_1765) (plus_125 x_52095 x_52063 x_52094) (plus_125 x_52096 x_52063 y_1985) (plus_125 x_52097 x_52096 z_1765)) false)))
(assert (forall ((x_52098 Int) (x_52099 Int) (x_52064 Int) (y_1986 Int))
	(=> (and true (diseqInt x_52098 x_52099) (plus_125 x_52098 x_52064 y_1986) (plus_125 x_52099 y_1986 x_52064)) false)))
(assert (forall ((x_52100 Int) (x_52065 Int))
	(=> (and true (diseqInt x_52100 x_52065) (plus_125 x_52100 x_52065 zero_131)) false)))
(assert (forall ((x_52101 Int) (x_52066 Int))
	(=> (and true (diseqInt x_52101 x_52066) (plus_125 x_52101 zero_131 x_52066)) false)))
(assert (forall ((x_52102 list_206) (x_52103 Int) (x_52104 Int) (x_52067 Int) (xs_566 list_206))
	(=> (and true (diseqInt x_52103 x_52104) (bubsort_5 x_52102 xs_566) (count_32 x_52103 x_52067 x_52102) (count_32 x_52104 x_52067 xs_566)) false)))
(check-sat)
